
Gurobi 6.0.4 (win64) logging started 06/18/15 16:11:03

Read LP format model from file C:\MT\repository\VRPTWMS\instances\mip\freight\N8-C_DV10-C_SV50_F18_2_No_1.lp
Reading time = 0.01 seconds
(null): 353 rows, 217 columns, 1467 nonzeros
Optimize a model with 353 rows, 217 columns and 1467 nonzeros
Model has 648 quadratic constraints
Coefficient statistics:
  Matrix range    [1e+00, 1e+06]
  Objective range [2e+04, 1e+07]
  Bounds range    [1e+00, 1e+06]
  RHS range       [1e+00, 1e+06]
Presolve removed 48 rows and 19 columns
Presolve time: 0.04s
Presolved: 1773 rows, 964 columns, 8202 nonzeros
Variable types: 702 continuous, 262 integer (210 binary)
Found heuristic solution: objective 8.311920e+07

Root relaxation: objective 2.123549e+06, 190 iterations, 0.01 seconds

    Nodes    |    Current Node    |     Objective Bounds      |     Work
 Expl Unexpl |  Obj  Depth IntInf | Incumbent    BestBd   Gap | It/Node Time

     0     0 2123548.90    0   66 8.3119e+07 2123548.90  97.4%     -    0s
H    0     0                    8.294800e+07 2123548.90  97.4%     -    0s
H    0     0                    5.243040e+07 2123548.90  95.9%     -    0s
     0     0 5089068.56    0   67 5.2430e+07 5089068.56  90.3%     -    0s
     0     0 1.1606e+07    0   68 5.2430e+07 1.1606e+07  77.9%     -    0s
     0     0 1.1641e+07    0   87 5.2430e+07 1.1641e+07  77.8%     -    0s
H    0     0                    4.325730e+07 1.1641e+07  73.1%     -    0s
     0     0 1.1695e+07    0   90 4.3257e+07 1.1695e+07  73.0%     -    0s
     0     0 1.1695e+07    0   84 4.3257e+07 1.1695e+07  73.0%     -    0s
     0     0 1.1695e+07    0  104 4.3257e+07 1.1695e+07  73.0%     -    0s
     0     0 1.1695e+07    0   92 4.3257e+07 1.1695e+07  73.0%     -    0s
     0     0 1.1695e+07    0   96 4.3257e+07 1.1695e+07  73.0%     -    0s
     0     0 1.1695e+07    0   96 4.3257e+07 1.1695e+07  73.0%     -    0s
     0     0 1.1695e+07    0   92 4.3257e+07 1.1695e+07  73.0%     -    0s
     0     2 1.1695e+07    0   90 4.3257e+07 1.1695e+07  73.0%     -    0s
*   68    44              25    4.310890e+07 1.1829e+07  72.6%  44.6    0s
*   72    44              24    4.294670e+07 1.1829e+07  72.5%  43.0    0s
*  306   178              27    4.288810e+07 1.2062e+07  71.9%  46.6    0s
H  307   178                    4.265260e+07 1.2062e+07  71.7%  46.4    0s
*  323   176              14    4.263250e+07 1.2062e+07  71.7%  46.7    0s
*  349   185              12    4.246590e+07 1.2075e+07  71.6%  47.6    0s
H  419   129                    3.240220e+07 1.2114e+07  62.6%  45.2    1s
*  560   196              16    3.240120e+07 1.2289e+07  62.1%  44.8    1s
  1677   613 2.3004e+07   31   56 3.2401e+07 2.2324e+07  31.1%  12.6    5s
  3677  1175 2.4814e+07   23   76 3.2401e+07 2.2501e+07  30.6%  41.7   10s
  5476  1894 2.4459e+07   35   49 3.2401e+07 2.2586e+07  30.3%  51.3   15s
  6943  2350 2.2688e+07   33   62 3.2401e+07 2.2646e+07  30.1%  57.1   20s
  8622  2877 2.3303e+07   39   66 3.2401e+07 2.2690e+07  30.0%  61.2   25s
 10357  3248 2.2795e+07   30   32 3.2401e+07 2.2739e+07  29.8%  65.8   30s
 11892  3552 2.8062e+07   44   29 3.2401e+07 2.2780e+07  29.7%  68.6   35s
 13370  3952 2.3313e+07   38   57 3.2401e+07 2.2805e+07  29.6%  70.5   40s
 14533  4224 2.4698e+07   39   92 3.2401e+07 2.2827e+07  29.5%  71.7   47s
 14546  4233 2.2961e+07   39   86 3.2401e+07 2.2827e+07  29.5%  71.7   50s
 14567  4247 2.2952e+07   37  111 3.2401e+07 2.2827e+07  29.5%  71.6   55s
 14588  4261 2.3026e+07   39  151 3.2401e+07 2.2827e+07  29.5%  71.5   60s
*14798  4045              36    3.233740e+07 2.2827e+07  29.4%  72.5   63s
 15056  4000 infeasible   32      3.2337e+07 2.2827e+07  29.4%  72.7   65s
 16062  3615 2.3154e+07   36   55 3.2337e+07 2.2860e+07  29.3%  76.7   70s

Cutting planes:
  Learned: 1
  Gomory: 10
  Cover: 14
  Implied bound: 265
  Clique: 13
  MIR: 174
  Flow cover: 231
  GUB cover: 5
  Zero half: 103

Explored 16365 nodes (1347063 simplex iterations) in 71.13 seconds
Thread count was 2 (of 4 available processors)

Optimal solution found (tolerance 1.00e-04)
Best objective 3.233740000000e+07, best bound 3.233740000000e+07, gap 0.0%
k_c1	0.0
k_c2	100000.0
k_c3	30000.0
k_c4	80000.0
k_c5	0.0
k_c6	100000.0
k_c7	40000.0
k_c8	50000.0
k_dN	-0.0
kDash_c1	10000.0
kDash_c2	80000.0
kDash_c3	-0.0
kDash_c4	30000.0
kDash_c5	70000.0
kDash_c6	50000.0
kDash_c7	-0.0
kDash_c8	0.0
o_1	1.0
o_2	-0.0
o_3	-0.0
o_4	0.0
o_5	1.0
o_6	-0.0
o_7	0.0
o_8	-0.0
p_1	1.0
p_2	-0.0
p_3	-0.0
p_4	0.0
p_5	1.0
p_6	0.0
p_7	0.0
p_8	0.0
phi_c1	30821.0
phi_c2	158290.99999999988
phi_c3	17367.00000000006
phi_c4	35181.99999999999
phi_c5	26593.0
phi_c6	170420.0
phi_c7	14685.0
phi_c8	156358.0
phi_d0	180000.0
phi_dN	-0.0
pi_c1	200000.0
pi_c2	20000.0
pi_c3	100000.0
pi_c4	70000.0
pi_c5	100000.0
pi_c6	50000.0
pi_c7	100000.0
pi_c8	120000.0
pi_dN	-0.0
tauD_c1	269700.00000000023
tauD_c2	100000.0
tauD_c3	816575.0
tauD_c4	700000.0
tauD_c5	415500.0000000001
tauD_c6	50000.0
tauD_c7	600000.0
tauD_c8	142550.0
tauD_d0	-0.0
tauD_dN	1000000.0
tauS_c1	15725.0
tauS_c2	65125.0
tauS_c3	11075.0
tauS_c4	864500.0
tauS_c5	365500.0000000001
tauS_c6	-0.0
tauS_c7	798000.0
tauS_c8	-0.0
tauS_d0	-0.0
tauS_dN	516850.0000000001
x_c1_c5	1.0
x_c2_c4	1.0
x_c3_dN	1.0
x_c4_c3	1.0
x_c5_c7	1.0
x_c6_c8	1.0
x_c7_dN	1.0
x_c8_c1	1.0
x_d0_c2	1.0
x_d0_c6	1.0
z_c1_c5	1.0
z_c5_dN	1.0
z_d0_c1	1.0
